
List of user-set options:

                                    Name   Value                used
                           linear_solver = mumps                 yes
                  ma57_automatic_scaling = yes                    no
                                max_iter = 2000                  yes
                             mu_strategy = adaptive              yes
                             output_file = Arm-ProblemIPOPTinfo.txt  yes
                             print_level = 5                     yes
                      print_user_options = yes                   yes
                                     tol = 1e-020                yes
This is Ipopt version 3.12.3, running with linear solver mumps.
NOTE: Other linear solvers might be more efficient (see Ipopt documentation).

Number of nonzeros in equality constraint Jacobian...:      424
Number of nonzeros in inequality constraint Jacobian.:        0
Number of nonzeros in Lagrangian Hessian.............:      166

Total number of variables............................:      103
                     variables with only lower bounds:        0
                variables with lower and upper bounds:      103
                     variables with only upper bounds:        0
Total number of equality constraints.................:       67
Total number of inequality constraints...............:        1
        inequality constraints with only lower bounds:        0
   inequality constraints with lower and upper bounds:        1
        inequality constraints with only upper bounds:        0

iter    objective    inf_pr   inf_du lg(mu)  ||d||  lg(rg) alpha_du alpha_pr  ls
   0 6.6699933e+004 4.81e+000 3.34e-003   0.0 0.00e+000    -  0.00e+000 0.00e+000   0
   1 1.2047797e+003 1.04e+000 1.36e+001  -0.9 4.99e-001    -  7.12e-002 9.90e-001f  1
   2 7.3997048e+002 1.70e-001 2.77e+001  -0.9 2.25e-001    -  9.72e-001 9.92e-001h  1
   3 7.9574296e+002 1.90e-002 1.65e+002  -1.9 5.05e-002    -  9.87e-001 1.00e+000h  1
   4 7.9401737e+002 2.68e-003 9.68e-003  -3.5 1.37e-002   0.0 1.00e+000 1.00e+000h  1
   5 7.8487614e+002 6.57e-004 2.15e-003  -5.1 6.80e-003  -0.5 1.00e+000 1.00e+000h  1
   6 7.5711927e+002 1.13e-002 3.63e-003  -6.3 2.80e-002  -1.0 1.00e+000 1.00e+000h  1
   7 7.4622138e+002 1.14e-003 2.44e-003  -7.3 9.14e-003  -0.5 1.00e+000 1.00e+000h  1
   8 7.1798856e+002 4.57e-003 3.07e-003  -8.6 1.92e-002  -1.0 1.00e+000 1.00e+000h  1
   9 6.3833640e+002 5.55e-002 1.65e-003  -9.6 6.35e-002  -1.5 1.00e+000 1.00e+000h  1
iter    objective    inf_pr   inf_du lg(mu)  ||d||  lg(rg) alpha_du alpha_pr  ls
  10 4.8578494e+002 5.87e-002 1.45e-003 -10.2 1.32e-001  -2.0 1.00e+000 1.00e+000h  1
  11 4.3707867e+002 5.43e-002 1.48e-003 -11.2 5.33e-002  -1.5 1.00e+000 1.00e+000h  1
  12 4.2934712e+002 5.46e-002 4.33e-003  -9.0 3.57e-001  -2.0 1.00e+000 2.67e-002h  1
  13 4.2919052e+002 5.45e-002 4.45e-001  -7.0 6.83e-002  -1.6 1.00e+000 2.36e-003h  1
  14 3.9061120e+002 1.40e-001 3.90e+001  -5.0 5.53e-001  -2.1 1.00e+000 1.22e-001h  1
  15 3.4609041e+002 3.14e-002 4.09e-003  -4.4 2.25e-001  -1.6 1.00e+000 1.00e+000H  1
  16 3.4109573e+002 8.61e-002 2.32e+001  -3.8 8.08e-002  -2.1 9.50e-001 1.00e+000h  1
  17 2.8221133e+002 7.88e-001 2.02e-002  -4.0 2.20e-001  -1.7 1.00e+000 1.00e+000h  1
  18 2.7948110e+002 2.76e-001 3.52e-003  -4.5 1.39e-001  -1.3 1.00e+000 1.00e+000h  1
  19 2.9393439e+002 1.75e-001 4.89e+001  -3.9 1.12e-001  -1.7 8.87e-001 1.00e+000h  1
iter    objective    inf_pr   inf_du lg(mu)  ||d||  lg(rg) alpha_du alpha_pr  ls
  20 2.3393457e+002 1.66e-001 2.36e-003  -4.2 1.40e-001  -2.2 1.00e+000 1.00e+000h  1
  21 2.4963813e+002 7.87e-003 8.31e-003  -3.7 6.40e-002  -0.9 1.00e+000 1.00e+000h  1
  22 2.2877575e+002 1.48e-002 1.10e+000  -4.9 3.04e-002  -1.4 9.98e-001 1.00e+000h  1
  23 1.8819672e+002 5.03e-002 1.04e-003  -4.4 5.41e-002  -1.8 1.00e+000 1.00e+000h  1
  24 1.7026427e+002 1.07e-001 9.79e-003  -5.0 9.00e-002  -1.4 1.00e+000 1.00e+000h  1
  25 1.7419046e+002 9.21e-002 9.17e+001  -4.4 1.06e-001  -1.9 1.00e+000 2.50e-001h  3
  26 1.9428010e+002 2.98e-002 1.85e-002  -3.4 5.20e-002  -0.6 1.00e+000 1.00e+000h  1
  27 1.8771944e+002 1.71e-003 1.37e+000  -4.8 1.11e-002  -1.0 9.99e-001 1.00e+000h  1
  28 1.6055582e+002 3.42e-002 1.09e-003  -5.5 4.06e-002  -1.5 1.00e+000 1.00e+000h  1
  29 1.7702530e+002 4.48e-001 5.18e+000  -3.9 1.59e-001  -2.0 1.00e+000 9.91e-001h  1
iter    objective    inf_pr   inf_du lg(mu)  ||d||  lg(rg) alpha_du alpha_pr  ls
  30 1.7813163e+002 1.38e-001 1.59e+001  -3.9 1.02e-001  -2.5 7.58e-001 1.00e+000h  1
  31 1.8746342e+002 1.95e-002 3.40e-003  -3.9 5.60e-002  -1.1 1.00e+000 1.00e+000h  1
  32 1.5064330e+002 1.70e-002 2.33e-003  -4.9 3.42e-002  -1.6 1.00e+000 1.00e+000h  1
  33 2.4701589e+001 3.47e-001 2.66e-004  -4.3 2.75e-001    -  1.00e+000 1.00e+000h  1
  34 3.5682697e+001 6.13e-002 3.79e+000  -5.0 7.82e-002    -  9.79e-001 1.00e+000h  1
  35 3.3903613e+001 9.22e-003 3.90e-005  -5.4 9.59e-002    -  1.00e+000 1.00e+000h  1
  36 2.9871482e+001 1.31e-002 2.31e-002  -6.2 1.22e-001    -  9.98e-001 1.00e+000h  1
  37 2.9513785e+001 5.31e-003 5.80e-005  -6.3 6.09e-002    -  1.00e+000 1.00e+000h  1
  38 2.8927253e+001 1.21e-003 5.55e-006  -7.4 1.16e-002    -  1.00e+000 1.00e+000h  1
  39 2.8907246e+001 7.09e-005 4.78e-007  -8.6 6.65e-003    -  1.00e+000 1.00e+000h  1
iter    objective    inf_pr   inf_du lg(mu)  ||d||  lg(rg) alpha_du alpha_pr  ls
  40 2.8918039e+001 1.30e-005 1.08e-007  -9.0 1.85e-003    -  1.00e+000 1.00e+000h  1
  41 2.8919294e+001 3.81e-006 2.18e-008  -9.6 7.82e-004    -  1.00e+000 1.00e+000h  1
  42 2.8919355e+001 9.65e-007 5.25e-009 -11.2 3.46e-004    -  1.00e+000 1.00e+000h  1
  43 2.8919372e+001 1.83e-007 1.25e-009 -12.8 1.14e-004    -  1.00e+000 1.00e+000h  1
  44 2.8919373e+001 1.75e-008 2.64e-010 -13.8 5.14e-005    -  1.00e+000 1.00e+000h  1
  45 2.8919372e+001 2.34e-009 3.51e-011 -14.7 1.88e-005    -  1.00e+000 1.00e+000h  1
  46 2.8919372e+001 7.72e-011 1.16e-012 -15.6 3.42e-006    -  1.00e+000 1.00e+000h  1
In iteration 46, 8 Slacks too small, adjusting variable bounds
  47 2.8919372e+001 9.70e-014 2.48e-014 -20.3 1.21e-007    -  1.00e+000 1.00e+000h  1
In iteration 47, 7 Slacks too small, adjusting variable bounds
  48 2.8919372e+001 4.86e-016 4.00e-014 -20.3 1.52e-010    -  1.00e+000 1.00e+000h  1
In iteration 48, 7 Slacks too small, adjusting variable bounds
  49 2.8919372e+001 4.44e-016 5.95e-014 -20.3 2.99e-016    -  1.00e+000 1.00e+000   0
In iteration 49, 7 Slacks too small, adjusting variable bounds
iter    objective    inf_pr   inf_du lg(mu)  ||d||  lg(rg) alpha_du alpha_pr  ls
  50 2.8919372e+001 1.13e-015 5.42e-014 -20.3 8.01e-017    -  1.00e+000 1.00e+000T  0
In iteration 50, 12 Slacks too small, adjusting variable bounds
  51 2.8919372e+001 7.22e-016 3.76e-014 -21.0 2.81e-015    -  1.00e+000 1.00e+000T  0

Number of Iterations....: 51

                                   (scaled)                 (unscaled)
Objective...............:  4.3379058215642087e-004   2.8919372143761393e+001
Dual infeasibility......:  3.7624078452859675e-014   2.5082718968573120e-009
Constraint violation....:  7.2164496600635175e-016   7.2164496600635175e-016
Complementarity.........:  1.1923806717738250e-021   7.9492044784921672e-017
Overall NLP error.......:  3.7624078452859675e-014   2.5082718968573120e-009


Number of objective function evaluations             = 56
Number of objective gradient evaluations             = 52
Number of equality constraint evaluations            = 56
Number of inequality constraint evaluations          = 56
Number of equality constraint Jacobian evaluations   = 52
Number of inequality constraint Jacobian evaluations = 52
Number of Lagrangian Hessian evaluations             = 52
Total CPU secs in IPOPT (w/o function evaluations)   =      0.194
Total CPU secs in NLP function evaluations           =      0.553

EXIT: Search Direction is becoming Too Small.
